p cnf 964
-18 -298
-19 -301
-20 -304
-21 -307
-22 -310
-23 -313
-24 -316
-25 -319
-26 -322
-27 -325
-28 -328
-29 -331
-30 -334
-31 -337
-32 -340
-33 -343
-34 -346
-35 347
-36 348
-37 349
-38 350
-39 -19
-39 -20
19 20 39
-40 -21
-40 -22
21 22 40
-41 -23
-41 -24
23 24 41
-42 -25
-42 -26
25 26 42
-43 -27
-43 -28
27 28 43
-44 -29
-44 -30
29 30 44
-45 -31
-45 -32
31 32 45
-46 -33
-46 -34
33 34 46
-47 -35
-47 -36
35 36 47
-48 -37
-48 -38
37 38 48
-49 39
-49 40
-39 -40 49
-50 41
-50 42
-41 -42 50
-51 43
-51 44
-43 -44 51
-52 45
-52 46
-45 -46 52
-53 47
-53 48
-47 -48 53
-54 49
-54 50
-49 -50 54
-55 51
-55 52
-51 -52 55
-56 54
-56 55
-54 -55 56
-57 53
-57 56
-53 -56 57
-58 -18
-58 19
18 -19 58
-59 18
-59 -19
-18 19 59
-60 -58
-60 -59
58 59 60
-61 18
-61 19
-18 -19 61
-62 -18
-62 -60
18 60 62
-63 18
-63 60
-18 -60 63
-64 -62
-64 -63
62 63 64
-65 18
-65 -60
-18 60 65
-66 -61
-66 -65
61 65 66
-67 -19
-67 20
19 -20 67
-68 19
-68 -20
-19 20 68
-69 -67
-69 -68
67 68 69
-70 19
-70 20
-19 -20 70
-71 66
-71 -69
-66 69 71
-72 -66
-72 69
66 -69 72
-73 -71
-73 -72
71 72 73
-74 -66
-74 -69
66 69 74
-75 -70
-75 -74
70 74 75
-76 -20
-76 21
20 -21 76
-77 20
-77 -21
-20 21 77
-78 -76
-78 -77
76 77 78
-79 20
-79 21
-20 -21 79
-80 75
-80 -78
-75 78 80
-81 -75
-81 78
75 -78 81
-82 -80
-82 -81
80 81 82
-83 -75
-83 -78
75 78 83
-84 -79
-84 -83
79 83 84
-85 -21
-85 22
21 -22 85
-86 21
-86 -22
-21 22 86
-87 -85
-87 -86
85 86 87
-88 21
-88 22
-21 -22 88
-89 84
-89 -87
-84 87 89
-90 -84
-90 87
84 -87 90
-91 -89
-91 -90
89 90 91
-92 -84
-92 -87
84 87 92
-93 -88
-93 -92
88 92 93
-94 -22
-94 23
22 -23 94
-95 22
-95 -23
-22 23 95
-96 -94
-96 -95
94 95 96
-97 22
-97 23
-22 -23 97
-98 93
-98 -96
-93 96 98
-99 -93
-99 96
93 -96 99
-100 -98
-100 -99
98 99 100
-101 -93
-101 -96
93 96 101
-102 -97
-102 -101
97 101 102
-103 -23
-103 24
23 -24 103
-104 23
-104 -24
-23 24 104
-105 -103
-105 -104
103 104 105
-106 23
-106 24
-23 -24 106
-107 102
-107 -105
-102 105 107
-108 -102
-108 105
102 -105 108
-109 -107
-109 -108
107 108 109
-110 -102
-110 -105
102 105 110
-111 -106
-111 -110
106 110 111
-112 -24
-112 25
24 -25 112
-113 24
-113 -25
-24 25 113
-114 -112
-114 -113
112 113 114
-115 24
-115 25
-24 -25 115
-116 111
-116 -114
-111 114 116
-117 -111
-117 114
111 -114 117
-118 -116
-118 -117
116 117 118
-119 -111
-119 -114
111 114 119
-120 -115
-120 -119
115 119 120
-121 -25
-121 26
25 -26 121
-122 25
-122 -26
-25 26 122
-123 -121
-123 -122
121 122 123
-124 25
-124 26
-25 -26 124
-125 120
-125 -123
-120 123 125
-126 -120
-126 123
120 -123 126
-127 -125
-127 -126
125 126 127
-128 -120
-128 -123
120 123 128
-129 -124
-129 -128
124 128 129
-130 -26
-130 27
26 -27 130
-131 26
-131 -27
-26 27 131
-132 -130
-132 -131
130 131 132
-133 26
-133 27
-26 -27 133
-134 129
-134 -132
-129 132 134
-135 -129
-135 132
129 -132 135
-136 -134
-136 -135
134 135 136
-137 -129
-137 -132
129 132 137
-138 -133
-138 -137
133 137 138
-139 -27
-139 28
27 -28 139
-140 27
-140 -28
-27 28 140
-141 -139
-141 -140
139 140 141
-142 27
-142 28
-27 -28 142
-143 138
-143 -141
-138 141 143
-144 -138
-144 141
138 -141 144
-145 -143
-145 -144
143 144 145
-146 -138
-146 -141
138 141 146
-147 -142
-147 -146
142 146 147
-148 -28
-148 29
28 -29 148
-149 28
-149 -29
-28 29 149
-150 -148
-150 -149
148 149 150
-151 28
-151 29
-28 -29 151
-152 147
-152 -150
-147 150 152
-153 -147
-153 150
147 -150 153
-154 -152
-154 -153
152 153 154
-155 -147
-155 -150
147 150 155
-156 -151
-156 -155
151 155 156
-157 -29
-157 30
29 -30 157
-158 29
-158 -30
-29 30 158
-159 -157
-159 -158
157 158 159
-160 29
-160 30
-29 -30 160
-161 156
-161 -159
-156 159 161
-162 -156
-162 159
156 -159 162
-163 -161
-163 -162
161 162 163
-164 -156
-164 -159
156 159 164
-165 -160
-165 -164
160 164 165
-166 -30
-166 31
30 -31 166
-167 30
-167 -31
-30 31 167
-168 -166
-168 -167
166 167 168
-169 30
-169 31
-30 -31 169
-170 165
-170 -168
-165 168 170
-171 -165
-171 168
165 -168 171
-172 -170
-172 -171
170 171 172
-173 -165
-173 -168
165 168 173
-174 -169
-174 -173
169 173 174
-175 -31
-175 32
31 -32 175
-176 31
-176 -32
-31 32 176
-177 -175
-177 -176
175 176 177
-178 31
-178 32
-31 -32 178
-179 174
-179 -177
-174 177 179
-180 -174
-180 177
174 -177 180
-181 -179
-181 -180
179 180 181
-182 -174
-182 -177
174 177 182
-183 -178
-183 -182
178 182 183
-184 -32
-184 33
32 -33 184
-185 32
-185 -33
-32 33 185
-186 -184
-186 -185
184 185 186
-187 32
-187 33
-32 -33 187
-188 183
-188 -186
-183 186 188
-189 -183
-189 186
183 -186 189
-190 -188
-190 -189
188 189 190
-191 -183
-191 -186
183 186 191
-192 -187
-192 -191
187 191 192
-193 -33
-193 34
33 -34 193
-194 33
-194 -34
-33 34 194
-195 -193
-195 -194
193 194 195
-196 33
-196 34
-33 -34 196
-197 192
-197 -195
-192 195 197
-198 -192
-198 195
192 -195 198
-199 -197
-199 -198
197 198 199
-200 -192
-200 -195
192 195 200
-201 -196
-201 -200
196 200 201
-202 -34
-202 35
34 -35 202
-203 34
-203 -35
-34 35 203
-204 -202
-204 -203
202 203 204
-205 34
-205 35
-34 -35 205
-206 201
-206 -204
-201 204 206
-207 -201
-207 204
201 -204 207
-208 -206
-208 -207
206 207 208
-209 -201
-209 -204
201 204 209
-210 -205
-210 -209
205 209 210
-211 -35
-211 36
35 -36 211
-212 35
-212 -36
-35 36 212
-213 -211
-213 -212
211 212 213
-214 35
-214 36
-35 -36 214
-215 210
-215 -213
-210 213 215
-216 -210
-216 213
210 -213 216
-217 -215
-217 -216
215 216 217
-218 -210
-218 -213
210 213 218
-219 -214
-219 -218
214 218 219
-220 -36
-220 37
36 -37 220
-221 36
-221 -37
-36 37 221
-222 -220
-222 -221
220 221 222
-223 36
-223 37
-36 -37 223
-224 219
-224 -222
-219 222 224
-225 -219
-225 222
219 -222 225
-226 -224
-226 -225
224 225 226
-227 -219
-227 -222
219 222 227
-228 -223
-228 -227
223 227 228
-229 -37
-229 38
37 -38 229
-230 37
-230 -38
-37 38 230
-231 -229
-231 -230
229 230 231
-232 37
-232 38
-37 -38 232
-233 228
-233 -231
-228 231 233
-234 -228
-234 231
228 -231 234
-235 -233
-235 -234
233 234 235
-236 -228
-236 -231
228 231 236
-237 -232
-237 -236
232 236 237
-238 18
-238 -64
-18 64 238
-239 -18
-239 20
18 -20 239
-240 -238
-240 -239
238 239 240
-241 18
-241 -73
-18 73 241
-242 -18
-242 21
18 -21 242
-243 -241
-243 -242
241 242 243
-244 18
-244 -82
-18 82 244
-245 -18
-245 22
18 -22 245
-246 -244
-246 -245
244 245 246
-247 18
-247 -91
-18 91 247
-248 -18
-248 23
18 -23 248
-249 -247
-249 -248
247 248 249
-250 18
-250 -100
-18 100 250
-251 -18
-251 24
18 -24 251
-252 -250
-252 -251
250 251 252
-253 18
-253 -109
-18 109 253
-254 -18
-254 25
18 -25 254
-255 -253
-255 -254
253 254 255
-256 18
-256 -118
-18 118 256
-257 -18
-257 26
18 -26 257
-258 -256
-258 -257
256 257 258
-259 18
-259 -127
-18 127 259
-260 -18
-260 27
18 -27 260
-261 -259
-261 -260
259 260 261
-262 18
-262 -136
-18 136 262
-263 -18
-263 28
18 -28 263
-264 -262
-264 -263
262 263 264
-265 18
-265 -145
-18 145 265
-266 -18
-266 29
18 -29 266
-267 -265
-267 -266
265 266 267
-268 18
-268 -154
-18 154 268
-269 -18
-269 30
18 -30 269
-270 -268
-270 -269
268 269 270
-271 18
-271 -163
-18 163 271
-272 -18
-272 31
18 -31 272
-273 -271
-273 -272
271 272 273
-274 18
-274 -172
-18 172 274
-275 -18
-275 32
18 -32 275
-276 -274
-276 -275
274 275 276
-277 18
-277 -181
-18 181 277
-278 -18
-278 33
18 -33 278
-279 -277
-279 -278
277 278 279
-280 18
-280 -190
-18 190 280
-281 -18
-281 34
18 -34 281
-282 -280
-282 -281
280 281 282
-283 18
-283 -199
-18 199 283
-284 -18
-284 35
18 -35 284
-285 -283
-285 -284
283 284 285
-286 18
-286 -208
-18 208 286
-287 -18
-287 36
18 -36 287
-288 -286
-288 -287
286 287 288
-289 18
-289 -217
-18 217 289
-290 -18
-290 37
18 -37 290
-291 -289
-291 -290
289 290 291
-292 18
-292 -226
-18 226 292
-293 -18
-293 38
18 -38 293
-294 -292
-294 -293
292 293 294
-295 18
-295 -235
-18 235 295
-296 1
-296 57
-1 -57 296
-297 -57
-297 58
57 -58 297
-298 -296
-298 -297
296 297 298
-299 2
-299 57
-2 -57 299
-300 -57
-300 -240
57 240 300
-301 -299
-301 -300
299 300 301
-302 3
-302 57
-3 -57 302
-303 -57
-303 -243
57 243 303
-304 -302
-304 -303
302 303 304
-305 4
-305 57
-4 -57 305
-306 -57
-306 -246
57 246 306
-307 -305
-307 -306
305 306 307
-308 5
-308 57
-5 -57 308
-309 -57
-309 -249
57 249 309
-310 -308
-310 -309
308 309 310
-311 6
-311 57
-6 -57 311
-312 -57
-312 -252
57 252 312
-313 -311
-313 -312
311 312 313
-314 7
-314 57
-7 -57 314
-315 -57
-315 -255
57 255 315
-316 -314
-316 -315
314 315 316
-317 8
-317 57
-8 -57 317
-318 -57
-318 -258
57 258 318
-319 -317
-319 -318
317 318 319
-320 9
-320 57
-9 -57 320
-321 -57
-321 -261
57 261 321
-322 -320
-322 -321
320 321 322
-323 10
-323 57
-10 -57 323
-324 -57
-324 -264
57 264 324
-325 -323
-325 -324
323 324 325
-326 11
-326 57
-11 -57 326
-327 -57
-327 -267
57 267 327
-328 -326
-328 -327
326 327 328
-329 12
-329 57
-12 -57 329
-330 -57
-330 -270
57 270 330
-331 -329
-331 -330
329 330 331
-332 13
-332 57
-13 -57 332
-333 -57
-333 -273
57 273 333
-334 -332
-334 -333
332 333 334
-335 14
-335 57
-14 -57 335
-336 -57
-336 -276
57 276 336
-337 -335
-337 -336
335 336 337
-338 15
-338 57
-15 -57 338
-339 -57
-339 -279
57 279 339
-340 -338
-340 -339
338 339 340
-341 16
-341 57
-16 -57 341
-342 -57
-342 -282
57 282 342
-343 -341
-343 -342
341 342 343
-344 17
-344 57
-17 -57 344
-345 -57
-345 -285
57 285 345
-346 -344
-346 -345
344 345 346
-347 -57
-347 -288
57 288 347
-348 -57
-348 -291
57 291 348
-349 -57
-349 -294
57 294 349
-350 -57
-350 295
57 -295 350
-351 -38
-351 237
38 -237 351
-352 18
-352 -351
-18 351 352
352
